param n := 25;
param s := 7;
param t := 5;
set A :=
1 4 
1 11 
1 14 
1 18 
2 6 
2 13 
2 15 
2 17 
2 21 
3 11 
3 13 
3 19 
3 24 
4 2 
4 9 
4 15 
4 19 
4 20 
6 4 
6 12 
6 13 
6 14 
6 21 
7 3 
7 6 
7 13 
7 16 
7 21 
7 22 
8 15 
8 25 
9 5 
9 6 
9 8 
9 16 
9 20 
9 24 
10 6 
10 11 
11 2 
11 14 
11 18 
11 25 
12 6 
12 18 
12 19 
12 20 
12 21 
12 22 
12 25 
13 11 
14 1 
14 10 
14 12 
14 16 
15 8 
15 16 
15 19 
16 1 
16 3 
16 13 
16 15 
17 3 
18 2 
18 8 
18 20 
19 6 
19 15 
20 10 
20 17 
20 23 
21 3 
21 5 
21 15 
22 16 
22 17 
23 1 
23 3 
23 17 
23 25 
24 4 
24 19 
25 1 
25 11 
25 21 
;
param: capacity:=
1 4 7.5 
1 11 4.8 
1 14 9.1 
1 18 9.0 
2 6 9.8 
2 13 4.9 
2 15 7.0 
2 17 7.3 
2 21 9.3 
3 11 9.4 
3 13 6.8 
3 19 6.5 
3 24 4.8 
4 2 6.3 
4 9 5.5 
4 15 4.9 
4 19 9.0 
4 20 8.8 
6 4 8.5 
6 12 7.8 
6 13 4.8 
6 14 6.8 
6 21 4.8 
7 3 7.3 
7 6 8.3 
7 13 4.1 
7 16 5.7 
7 21 4.4 
7 22 6.9 
8 15 6.6 
8 25 4.5 
9 5 6.4 
9 6 5.8 
9 8 8.8 
9 16 5.3 
9 20 6.2 
9 24 7.9 
10 6 7.7 
10 11 8.6 
11 2 5.0 
11 14 6.6 
11 18 4.3 
11 25 5.5 
12 6 9.2 
12 18 9.5 
12 19 8.6 
12 20 3.6 
12 21 7.5 
12 22 7.0 
12 25 3.5 
13 11 7.4 
14 1 4.0 
14 10 9.0 
14 12 9.2 
14 16 6.9 
15 8 7.7 
15 16 8.7 
15 19 7.9 
16 1 7.2 
16 3 7.9 
16 13 4.7 
16 15 6.0 
17 3 4.9 
18 2 3.4 
18 8 5.4 
18 20 8.1 
19 6 8.8 
19 15 3.1 
20 10 8.9 
20 17 8.1 
20 23 6.5 
21 3 6.4 
21 5 6.0 
21 15 3.4 
22 16 8.2 
22 17 7.5 
23 1 8.5 
23 3 4.5 
23 17 8.4 
23 25 3.8 
24 4 5.7 
24 19 6.3 
25 1 4.7 
25 11 5.6 
25 21 8.0 
;
param: cost:=
1 4 3.3 
1 11 8.0 
1 14 7.7 
1 18 1.9 
2 6 3.5 
2 13 5.5 
2 15 7.7 
2 17 7.6 
2 21 9.2 
3 11 3.0 
3 13 7.4 
3 19 6.1 
3 24 3.0 
4 2 6.2 
4 9 3.9 
4 15 3.1 
4 19 1.9 
4 20 5.2 
6 4 7.4 
6 12 4.5 
6 13 4.6 
6 14 5.4 
6 21 1.2 
7 3 3.4 
7 6 2.4 
7 13 1.5 
7 16 6.4 
7 21 9.6 
7 22 8.1 
8 15 5.2 
8 25 9.9 
9 5 4.5 
9 6 8.9 
9 8 2.8 
9 16 4.9 
9 20 9.6 
9 24 1.7 
10 6 1.0 
10 11 4.3 
11 2 2.9 
11 14 5.2 
11 18 8.0 
11 25 5.9 
12 6 3.5 
12 18 9.1 
12 19 4.1 
12 20 9.2 
12 21 2.7 
12 22 5.1 
12 25 1.9 
13 11 8.0 
14 1 8.5 
14 10 5.3 
14 12 1.5 
14 16 3.4 
15 8 9.1 
15 16 2.7 
15 19 8.7 
16 1 2.3 
16 3 5.9 
16 13 3.1 
16 15 2.0 
17 3 1.4 
18 2 9.2 
18 8 6.6 
18 20 5.8 
19 6 2.3 
19 15 1.5 
20 10 4.5 
20 17 7.8 
20 23 3.1 
21 3 8.0 
21 5 6.3 
21 15 7.0 
22 16 7.0 
22 17 5.6 
23 1 9.9 
23 3 6.9 
23 17 4.0 
23 25 1.6 
24 4 1.6 
24 19 8.8 
25 1 4.0 
25 11 7.6 
25 21 4.8 
;